\ENCODING=ISO-8859-1
\Problem name: IloCplex

Maximize
 obj: 753 vnp1 - 1001 (π,ρ)0↑e1 - 2010 (π,ρ)1↑e2
      - 3003 (π,ρ)2↑e3 - 40 (π,ρ)3↑e3
      - 2042 (π,ρ)4↑e3 - 36 (π,ρ)5↑e3
      - 40 (π,ρ)6↑e3 - 37037 (π,ρ)7↑e3
      - 78 (π,ρ)8↑e3 - 20050 (π,ρ)9↑e3
      - 2042 (π,ρ)10↑e3 - 78 (π,ρ)11↑e3
      - 41041 (π,ρ)12↑e3 - 74 (π,ρ)13↑e3
      - 36 (π,ρ)14↑e3 - 20050 (π,ρ)15↑e3
      - 74 (π,ρ)16↑e3 - 33033 (π,ρ)17↑e3 + 715 vnp2
      - 9018 (π,ρ)18↑e4 - 72 (π,ρ)19↑e4
      - 5048 (π,ρ)20↑e4 - 82 (π,ρ)21↑e4
      - 72 (π,ρ)22↑e4 - 27054 (π,ρ)23↑e4
      - 14066 (π,ρ)24↑e4 - 13092 (π,ρ)25↑e4
      - 5048 (π,ρ)26↑e4 - 14066 (π,ρ)27↑e4
      - 20040 (π,ρ)28↑e4 - 104 (π,ρ)29↑e4
      - 82 (π,ρ)30↑e4 - 13092 (π,ρ)31↑e4
      - 104 (π,ρ)32↑e4 - 32064 (π,ρ)33↑e4
      - 18054 (π,ρ)34↑e5 - 13087 (π,ρ)35↑e5
      - 156 (π,ρ)36↑e5 - 213 (π,ρ)37↑e5
      - 13087 (π,ρ)38↑e5 - 24072 (π,ρ)39↑e5
      - 9147 (π,ρ)40↑e5 - 231 (π,ρ)41↑e5
      - 156 (π,ρ)42↑e5 - 9147 (π,ρ)43↑e5
      - 34102 (π,ρ)44↑e5 - 5246 (π,ρ)45↑e5
      - 213 (π,ρ)46↑e5 - 231 (π,ρ)47↑e5
      - 5246 (π,ρ)48↑e5 - 53159 (π,ρ)49↑e5
      - 9009 (π,ρ)50↑e6 - 24048 (π,ρ)51↑e7
      - 20078 (π,ρ)52↑e7 - 4106 (π,ρ)53↑e7
      - 4056 (π,ρ)54↑e7 - 20078 (π,ρ)55↑e7
      - 35070 (π,ρ)56↑e7 - 136 (π,ρ)57↑e7
      - 86 (π,ρ)58↑e7 - 4106 (π,ρ)59↑e7
      - 136 (π,ρ)60↑e7 - 33066 (π,ρ)61↑e7
      - 4074 (π,ρ)62↑e7 - 4056 (π,ρ)63↑e7
      - 86 (π,ρ)64↑e7 - 4074 (π,ρ)65↑e7
      - 8016 (π,ρ)66↑e7 + 790 vnp3 - 4016 (π,ρ)67↑e8
      - 29058 (π,ρ)68↑e9 - 124 (π,ρ)69↑e9
      - 72 (π,ρ)70↑e9 - 20100 (π,ρ)71↑e9
      - 124 (π,ρ)72↑e9 - 33066 (π,ρ)73↑e9
      - 80 (π,ρ)74↑e9 - 148 (π,ρ)75↑e9
      - 72 (π,ρ)76↑e9 - 80 (π,ρ)77↑e9
      - 7014 (π,ρ)78↑e9 - 4088 (π,ρ)79↑e9
      - 20100 (π,ρ)80↑e9 - 148 (π,ρ)81↑e9
      - 4088 (π,ρ)82↑e9 - 41082 (π,ρ)83↑e9
      - 3009 (π,ρ)84↑e10 - 120 (π,ρ)85↑e10
      - 2126 (π,ρ)86↑e10 - 108 (π,ρ)87↑e10
      - 120 (π,ρ)88↑e10 - 37111 (π,ρ)89↑e10
      - 234 (π,ρ)90↑e10 - 20150 (π,ρ)91↑e10
      - 2126 (π,ρ)92↑e10 - 234 (π,ρ)93↑e10
      - 41123 (π,ρ)94↑e10 - 222 (π,ρ)95↑e10
      - 108 (π,ρ)96↑e10 - 20150 (π,ρ)97↑e10
      - 222 (π,ρ)98↑e10 - 33099 (π,ρ)99↑e10
Subject To
 _EmbdConstr_vnp1e1#0:   vnp1 - (π,ρ)0↑e1  = 0
 _EmbdConstr_vnp1e2#1:   vnp1 - (π,ρ)1↑e2  = 0
 _EmbdConstr_vnp1e3#2:   vnp1 - (π,ρ)2↑e3 - (π,ρ)3↑e3
                         - (π,ρ)4↑e3 - (π,ρ)5↑e3
                         - (π,ρ)6↑e3 - (π,ρ)7↑e3
                         - (π,ρ)8↑e3 - (π,ρ)9↑e3
                         - (π,ρ)10↑e3 - (π,ρ)11↑e3
                         - (π,ρ)12↑e3 - (π,ρ)13↑e3
                         - (π,ρ)14↑e3 - (π,ρ)15↑e3
                         - (π,ρ)16↑e3 - (π,ρ)17↑e3  = 0
 _EmbdConstr_vnp2e4#3:   vnp2 - (π,ρ)18↑e4 - (π,ρ)19↑e4
                         - (π,ρ)20↑e4 - (π,ρ)21↑e4
                         - (π,ρ)22↑e4 - (π,ρ)23↑e4
                         - (π,ρ)24↑e4 - (π,ρ)25↑e4
                         - (π,ρ)26↑e4 - (π,ρ)27↑e4
                         - (π,ρ)28↑e4 - (π,ρ)29↑e4
                         - (π,ρ)30↑e4 - (π,ρ)31↑e4
                         - (π,ρ)32↑e4 - (π,ρ)33↑e4  = 0
 _EmbdConstr_vnp2e5#4:   vnp2 - (π,ρ)34↑e5 - (π,ρ)35↑e5
                         - (π,ρ)36↑e5 - (π,ρ)37↑e5
                         - (π,ρ)38↑e5 - (π,ρ)39↑e5
                         - (π,ρ)40↑e5 - (π,ρ)41↑e5
                         - (π,ρ)42↑e5 - (π,ρ)43↑e5
                         - (π,ρ)44↑e5 - (π,ρ)45↑e5
                         - (π,ρ)46↑e5 - (π,ρ)47↑e5
                         - (π,ρ)48↑e5 - (π,ρ)49↑e5  = 0
 _EmbdConstr_vnp2e6#5:   vnp2 - (π,ρ)50↑e6  = 0
 _EmbdConstr_vnp2e7#6:   vnp2 - (π,ρ)51↑e7 - (π,ρ)52↑e7
                         - (π,ρ)53↑e7 - (π,ρ)54↑e7
                         - (π,ρ)55↑e7 - (π,ρ)56↑e7
                         - (π,ρ)57↑e7 - (π,ρ)58↑e7
                         - (π,ρ)59↑e7 - (π,ρ)60↑e7
                         - (π,ρ)61↑e7 - (π,ρ)62↑e7
                         - (π,ρ)63↑e7 - (π,ρ)64↑e7
                         - (π,ρ)65↑e7 - (π,ρ)66↑e7  = 0
 _EmbdConstr_vnp3e8#7:   vnp3 - (π,ρ)67↑e8  = 0
 _EmbdConstr_vnp3e9#8:   vnp3 - (π,ρ)68↑e9 - (π,ρ)69↑e9
                         - (π,ρ)70↑e9 - (π,ρ)71↑e9
                         - (π,ρ)72↑e9 - (π,ρ)73↑e9
                         - (π,ρ)74↑e9 - (π,ρ)75↑e9
                         - (π,ρ)76↑e9 - (π,ρ)77↑e9
                         - (π,ρ)78↑e9 - (π,ρ)79↑e9
                         - (π,ρ)80↑e9 - (π,ρ)81↑e9
                         - (π,ρ)82↑e9 - (π,ρ)83↑e9  = 0
 _EmbdConstr_vnp3e10#9:  vnp3 - (π,ρ)84↑e10 - (π,ρ)85↑e10
                         - (π,ρ)86↑e10 - (π,ρ)87↑e10
                         - (π,ρ)88↑e10 - (π,ρ)89↑e10
                         - (π,ρ)90↑e10 - (π,ρ)91↑e10
                         - (π,ρ)92↑e10 - (π,ρ)93↑e10
                         - (π,ρ)94↑e10 - (π,ρ)95↑e10
                         - (π,ρ)96↑e10 - (π,ρ)97↑e10
                         - (π,ρ)98↑e10 - (π,ρ)99↑e10  = 0
 BwCapConstr_slink1#10:  (π,ρ)4↑e3 + (π,ρ)8↑e3
                         + (π,ρ)10↑e3 + (π,ρ)11↑e3
                         + 2 (π,ρ)12↑e3 + (π,ρ)13↑e3
                         + (π,ρ)16↑e3 + 3 (π,ρ)86↑e10
                         + 3 (π,ρ)90↑e10 + 3 (π,ρ)92↑e10
                         + 3 (π,ρ)93↑e10 + 6 (π,ρ)94↑e10
                         + 3 (π,ρ)95↑e10 + 3 (π,ρ)98↑e10
                         <= 20
 BwCapConstr_slink2#11:  (π,ρ)4↑e3 + (π,ρ)8↑e3
                         + (π,ρ)10↑e3 + (π,ρ)11↑e3
                         + 2 (π,ρ)12↑e3 + (π,ρ)13↑e3
                         + (π,ρ)16↑e3 + 3 (π,ρ)86↑e10
                         + 3 (π,ρ)90↑e10 + 3 (π,ρ)92↑e10
                         + 3 (π,ρ)93↑e10 + 6 (π,ρ)94↑e10
                         + 3 (π,ρ)95↑e10 + 3 (π,ρ)98↑e10
                         <= 20
 BwCapConstr_slink3#12:  6 (π,ρ)34↑e5 + 6 (π,ρ)35↑e5
                         + 3 (π,ρ)36↑e5 + 3 (π,ρ)37↑e5
                         + 6 (π,ρ)38↑e5 + 6 (π,ρ)39↑e5
                         + 3 (π,ρ)40↑e5 + 3 (π,ρ)41↑e5
                         + 3 (π,ρ)42↑e5 + 3 (π,ρ)43↑e5
                         + 3 (π,ρ)46↑e5 + 3 (π,ρ)47↑e5
                         <= 7
 BwCapConstr_slink5#13:  2 (π,ρ)0↑e1 + 2 (π,ρ)2↑e3
                         + (π,ρ)3↑e3 + (π,ρ)4↑e3
                         + (π,ρ)5↑e3 + (π,ρ)6↑e3
                         + (π,ρ)10↑e3 + (π,ρ)14↑e3
                         + 6 (π,ρ)34↑e5 + 3 (π,ρ)35↑e5
                         + 3 (π,ρ)36↑e5 + 3 (π,ρ)37↑e5
                         + 3 (π,ρ)38↑e5 + 3 (π,ρ)42↑e5
                         + 3 (π,ρ)46↑e5 + 2 (π,ρ)70↑e9
                         + 2 (π,ρ)74↑e9 + 2 (π,ρ)76↑e9
                         + 2 (π,ρ)77↑e9 + 4 (π,ρ)78↑e9
                         + 2 (π,ρ)79↑e9 + 2 (π,ρ)82↑e9
                         + 6 (π,ρ)84↑e10 + 3 (π,ρ)85↑e10
                         + 3 (π,ρ)86↑e10 + 3 (π,ρ)87↑e10
                         + 3 (π,ρ)88↑e10 + 3 (π,ρ)92↑e10
                         + 3 (π,ρ)96↑e10 <= 15
 BwCapConstr_slink6#14:  (π,ρ)3↑e3 + (π,ρ)6↑e3
                         + 2 (π,ρ)7↑e3 + (π,ρ)8↑e3
                         + (π,ρ)9↑e3 + (π,ρ)11↑e3
                         + (π,ρ)15↑e3 + 2 (π,ρ)71↑e9
                         + 2 (π,ρ)75↑e9 + 2 (π,ρ)79↑e9
                         + 2 (π,ρ)80↑e9 + 2 (π,ρ)81↑e9
                         + 2 (π,ρ)82↑e9 + 4 (π,ρ)83↑e9
                         + 3 (π,ρ)85↑e10 + 3 (π,ρ)88↑e10
                         + 6 (π,ρ)89↑e10 + 3 (π,ρ)90↑e10
                         + 3 (π,ρ)91↑e10 + 3 (π,ρ)93↑e10
                         + 3 (π,ρ)97↑e10 <= 5
 BwCapConstr_slink7#15:  3 (π,ρ)35↑e5 + 3 (π,ρ)38↑e5
                         + 6 (π,ρ)39↑e5 + 3 (π,ρ)40↑e5
                         + 3 (π,ρ)41↑e5 + 3 (π,ρ)43↑e5
                         + 3 (π,ρ)47↑e5 + 2 (π,ρ)54↑e7
                         + 2 (π,ρ)58↑e7 + 2 (π,ρ)62↑e7
                         + 2 (π,ρ)63↑e7 + 2 (π,ρ)64↑e7
                         + 2 (π,ρ)65↑e7 + 4 (π,ρ)66↑e7
                         <= 16
 BwCapConstr_slink8#16:  10 (π,ρ)1↑e2 + 2 (π,ρ)2↑e3
                         + (π,ρ)3↑e3 + 2 (π,ρ)4↑e3
                         + (π,ρ)5↑e3 + (π,ρ)6↑e3
                         + (π,ρ)8↑e3 + 2 (π,ρ)10↑e3
                         + (π,ρ)11↑e3 + 2 (π,ρ)12↑e3
                         + (π,ρ)13↑e3 + (π,ρ)14↑e3
                         + (π,ρ)16↑e3 + 2 (π,ρ)54↑e7
                         + 2 (π,ρ)58↑e7 + 2 (π,ρ)62↑e7
                         + 2 (π,ρ)63↑e7 + 2 (π,ρ)64↑e7
                         + 2 (π,ρ)65↑e7 + 4 (π,ρ)66↑e7
                         + 2 (π,ρ)70↑e9 + 2 (π,ρ)74↑e9
                         + 2 (π,ρ)76↑e9 + 2 (π,ρ)77↑e9
                         + 4 (π,ρ)78↑e9 + 2 (π,ρ)79↑e9
                         + 2 (π,ρ)82↑e9 + 6 (π,ρ)84↑e10
                         + 3 (π,ρ)85↑e10 + 6 (π,ρ)86↑e10
                         + 3 (π,ρ)87↑e10 + 3 (π,ρ)88↑e10
                         + 3 (π,ρ)90↑e10 + 6 (π,ρ)92↑e10
                         + 3 (π,ρ)93↑e10 + 6 (π,ρ)94↑e10
                         + 3 (π,ρ)95↑e10 + 3 (π,ρ)96↑e10
                         + 3 (π,ρ)98↑e10 <= 6
 BwCapConstr_slink9#17:  (π,ρ)3↑e3 + (π,ρ)5↑e3
                         + (π,ρ)6↑e3 + 2 (π,ρ)7↑e3
                         + (π,ρ)8↑e3 + 2 (π,ρ)9↑e3
                         + (π,ρ)11↑e3 + (π,ρ)13↑e3
                         + (π,ρ)14↑e3 + 2 (π,ρ)15↑e3
                         + (π,ρ)16↑e3 + 2 (π,ρ)17↑e3
                         + 3 (π,ρ)36↑e5 + 3 (π,ρ)40↑e5
                         + 3 (π,ρ)42↑e5 + 3 (π,ρ)43↑e5
                         + 6 (π,ρ)44↑e5 + 3 (π,ρ)45↑e5
                         + 3 (π,ρ)48↑e5 + 4 (π,ρ)51↑e7
                         + 4 (π,ρ)52↑e7 + 2 (π,ρ)53↑e7
                         + 2 (π,ρ)54↑e7 + 4 (π,ρ)55↑e7
                         + 4 (π,ρ)56↑e7 + 2 (π,ρ)57↑e7
                         + 2 (π,ρ)58↑e7 + 2 (π,ρ)59↑e7
                         + 2 (π,ρ)60↑e7 + 2 (π,ρ)63↑e7
                         + 2 (π,ρ)64↑e7 + 4 (π,ρ)68↑e9
                         + 2 (π,ρ)69↑e9 + 2 (π,ρ)70↑e9
                         + 4 (π,ρ)71↑e9 + 2 (π,ρ)72↑e9
                         + 2 (π,ρ)75↑e9 + 2 (π,ρ)76↑e9
                         + 2 (π,ρ)79↑e9 + 4 (π,ρ)80↑e9
                         + 2 (π,ρ)81↑e9 + 2 (π,ρ)82↑e9
                         + 4 (π,ρ)83↑e9 + 3 (π,ρ)85↑e10
                         + 3 (π,ρ)87↑e10 + 3 (π,ρ)88↑e10
                         + 6 (π,ρ)89↑e10 + 3 (π,ρ)90↑e10
                         + 6 (π,ρ)91↑e10 + 3 (π,ρ)93↑e10
                         + 3 (π,ρ)95↑e10 + 3 (π,ρ)96↑e10
                         + 6 (π,ρ)97↑e10 + 3 (π,ρ)98↑e10
                         + 6 (π,ρ)99↑e10 <= 7
 BwCapConstr_slink10#18: 4 (π,ρ)18↑e4 + 2 (π,ρ)19↑e4
                         + 4 (π,ρ)20↑e4 + 2 (π,ρ)21↑e4
                         + 2 (π,ρ)22↑e4 + 2 (π,ρ)24↑e4
                         + 4 (π,ρ)26↑e4 + 2 (π,ρ)27↑e4
                         + 4 (π,ρ)28↑e4 + 2 (π,ρ)29↑e4
                         + 2 (π,ρ)30↑e4 + 2 (π,ρ)32↑e4
                         + 3 (π,ρ)36↑e5 + 3 (π,ρ)37↑e5
                         + 3 (π,ρ)40↑e5 + 3 (π,ρ)41↑e5
                         + 3 (π,ρ)42↑e5 + 3 (π,ρ)43↑e5
                         + 6 (π,ρ)44↑e5 + 6 (π,ρ)45↑e5
                         + 3 (π,ρ)46↑e5 + 3 (π,ρ)47↑e5
                         + 6 (π,ρ)48↑e5 + 6 (π,ρ)49↑e5
                         <= 20
 BwCapConstr_slink11#19: 2 (π,ρ)19↑e4 + 2 (π,ρ)21↑e4
                         + 2 (π,ρ)22↑e4 + 4 (π,ρ)23↑e4
                         + 2 (π,ρ)24↑e4 + 4 (π,ρ)25↑e4
                         + 2 (π,ρ)27↑e4 + 2 (π,ρ)29↑e4
                         + 2 (π,ρ)30↑e4 + 4 (π,ρ)31↑e4
                         + 2 (π,ρ)32↑e4 + 4 (π,ρ)33↑e4
                         <= 9
 BwCapConstr_slink12#20: 2 (π,ρ)53↑e7 + 2 (π,ρ)57↑e7
                         + 2 (π,ρ)59↑e7 + 2 (π,ρ)60↑e7
                         + 4 (π,ρ)61↑e7 + 2 (π,ρ)62↑e7
                         + 2 (π,ρ)65↑e7 <= 8
 BwCapConstr_slink13#21: (π,ρ)5↑e3 + (π,ρ)9↑e3
                         + (π,ρ)13↑e3 + (π,ρ)14↑e3
                         + (π,ρ)15↑e3 + (π,ρ)16↑e3
                         + 2 (π,ρ)17↑e3 + 3 (π,ρ)35↑e5
                         + 3 (π,ρ)36↑e5 + 3 (π,ρ)38↑e5
                         + 6 (π,ρ)39↑e5 + 6 (π,ρ)40↑e5
                         + 3 (π,ρ)41↑e5 + 3 (π,ρ)42↑e5
                         + 6 (π,ρ)43↑e5 + 6 (π,ρ)44↑e5
                         + 3 (π,ρ)45↑e5 + 3 (π,ρ)47↑e5
                         + 3 (π,ρ)48↑e5 + 2 (π,ρ)50↑e6
                         + 4 (π,ρ)68↑e9 + 2 (π,ρ)69↑e9
                         + 2 (π,ρ)70↑e9 + 2 (π,ρ)71↑e9
                         + 2 (π,ρ)72↑e9 + 2 (π,ρ)76↑e9
                         + 2 (π,ρ)80↑e9 + 3 (π,ρ)87↑e10
                         + 3 (π,ρ)91↑e10 + 3 (π,ρ)95↑e10
                         + 3 (π,ρ)96↑e10 + 3 (π,ρ)97↑e10
                         + 3 (π,ρ)98↑e10 + 6 (π,ρ)99↑e10
                         <= 12
 BwCapConstr_slink14#22: (π,ρ)5↑e3 + (π,ρ)9↑e3
                         + (π,ρ)13↑e3 + (π,ρ)14↑e3
                         + (π,ρ)15↑e3 + (π,ρ)16↑e3
                         + 2 (π,ρ)17↑e3 + 6 (π,ρ)34↑e5
                         + 3 (π,ρ)35↑e5 + 3 (π,ρ)36↑e5
                         + 3 (π,ρ)37↑e5 + 3 (π,ρ)38↑e5
                         + 3 (π,ρ)42↑e5 + 3 (π,ρ)46↑e5
                         + 8 (π,ρ)67↑e8 + 2 (π,ρ)70↑e9
                         + 2 (π,ρ)71↑e9 + 2 (π,ρ)74↑e9
                         + 2 (π,ρ)75↑e9 + 2 (π,ρ)76↑e9
                         + 2 (π,ρ)77↑e9 + 4 (π,ρ)78↑e9
                         + 4 (π,ρ)79↑e9 + 2 (π,ρ)80↑e9
                         + 2 (π,ρ)81↑e9 + 4 (π,ρ)82↑e9
                         + 4 (π,ρ)83↑e9 + 3 (π,ρ)87↑e10
                         + 3 (π,ρ)91↑e10 + 3 (π,ρ)95↑e10
                         + 3 (π,ρ)96↑e10 + 3 (π,ρ)97↑e10
                         + 3 (π,ρ)98↑e10 + 6 (π,ρ)99↑e10
                         <= 15
 BwCapConstr_slink20#23: 3 (π,ρ)37↑e5 + 3 (π,ρ)41↑e5
                         + 3 (π,ρ)45↑e5 + 3 (π,ρ)46↑e5
                         + 3 (π,ρ)47↑e5 + 3 (π,ρ)48↑e5
                         + 6 (π,ρ)49↑e5 + 2 (π,ρ)69↑e9
                         + 2 (π,ρ)72↑e9 + 4 (π,ρ)73↑e9
                         + 2 (π,ρ)74↑e9 + 2 (π,ρ)75↑e9
                         + 2 (π,ρ)77↑e9 + 2 (π,ρ)81↑e9
                         <= 8
 BwCapConstr_slink22#24: 2 (π,ρ)53↑e7 + 2 (π,ρ)57↑e7
                         + 2 (π,ρ)59↑e7 + 2 (π,ρ)60↑e7
                         + 4 (π,ρ)61↑e7 + 2 (π,ρ)62↑e7
                         + 2 (π,ρ)65↑e7 + 2 (π,ρ)69↑e9
                         + 2 (π,ρ)72↑e9 + 4 (π,ρ)73↑e9
                         + 2 (π,ρ)74↑e9 + 2 (π,ρ)75↑e9
                         + 2 (π,ρ)77↑e9 + 2 (π,ρ)81↑e9
                         <= 1
 BwCapConstr_slink23#25: 3 (π,ρ)37↑e5 + 3 (π,ρ)41↑e5
                         + 3 (π,ρ)45↑e5 + 3 (π,ρ)46↑e5
                         + 3 (π,ρ)47↑e5 + 3 (π,ρ)48↑e5
                         + 6 (π,ρ)49↑e5 <= 13
 BwCapConstr_slink24#26: 3 (π,ρ)37↑e5 + 3 (π,ρ)41↑e5
                         + 3 (π,ρ)45↑e5 + 3 (π,ρ)46↑e5
                         + 3 (π,ρ)47↑e5 + 3 (π,ρ)48↑e5
                         + 6 (π,ρ)49↑e5 <= 9
 BwCapConstr_slink25#27: 4 (π,ρ)18↑e4 + 2 (π,ρ)19↑e4
                         + 2 (π,ρ)20↑e4 + 2 (π,ρ)21↑e4
                         + 2 (π,ρ)22↑e4 + 2 (π,ρ)26↑e4
                         + 2 (π,ρ)30↑e4 + 4 (π,ρ)51↑e7
                         + 2 (π,ρ)52↑e7 + 4 (π,ρ)53↑e7
                         + 4 (π,ρ)54↑e7 + 2 (π,ρ)55↑e7
                         + 2 (π,ρ)57↑e7 + 2 (π,ρ)58↑e7
                         + 4 (π,ρ)59↑e7 + 2 (π,ρ)60↑e7
                         + 4 (π,ρ)61↑e7 + 4 (π,ρ)62↑e7
                         + 4 (π,ρ)63↑e7 + 2 (π,ρ)64↑e7
                         + 4 (π,ρ)65↑e7 + 4 (π,ρ)66↑e7
                         <= 11
 BwCapConstr_slink26#28: 2 (π,ρ)20↑e4 + 2 (π,ρ)24↑e4
                         + 2 (π,ρ)26↑e4 + 2 (π,ρ)27↑e4
                         + 4 (π,ρ)28↑e4 + 2 (π,ρ)29↑e4
                         + 2 (π,ρ)32↑e4 + 2 (π,ρ)52↑e7
                         + 2 (π,ρ)55↑e7 + 4 (π,ρ)56↑e7
                         + 2 (π,ρ)57↑e7 + 2 (π,ρ)58↑e7
                         + 2 (π,ρ)60↑e7 + 2 (π,ρ)64↑e7
                         <= 6
 BwCapConstr_slink27#29: 2 (π,ρ)19↑e4 + 2 (π,ρ)20↑e4
                         + 2 (π,ρ)22↑e4 + 4 (π,ρ)23↑e4
                         + 4 (π,ρ)24↑e4 + 2 (π,ρ)25↑e4
                         + 2 (π,ρ)26↑e4 + 4 (π,ρ)27↑e4
                         + 4 (π,ρ)28↑e4 + 2 (π,ρ)29↑e4
                         + 2 (π,ρ)31↑e4 + 2 (π,ρ)32↑e4
                         + 2 (π,ρ)52↑e7 + 2 (π,ρ)55↑e7
                         + 4 (π,ρ)56↑e7 + 2 (π,ρ)57↑e7
                         + 2 (π,ρ)58↑e7 + 2 (π,ρ)60↑e7
                         + 2 (π,ρ)64↑e7 <= 13
 BwCapConstr_slink38#30: 2 (π,ρ)21↑e4 + 2 (π,ρ)25↑e4
                         + 2 (π,ρ)29↑e4 + 2 (π,ρ)30↑e4
                         + 2 (π,ρ)31↑e4 + 2 (π,ρ)32↑e4
                         + 4 (π,ρ)33↑e4 <= 20
 BwCapConstr_slink41#31: 2 (π,ρ)21↑e4 + 2 (π,ρ)25↑e4
                         + 2 (π,ρ)29↑e4 + 2 (π,ρ)30↑e4
                         + 2 (π,ρ)31↑e4 + 2 (π,ρ)32↑e4
                         + 4 (π,ρ)33↑e4 <= 20
Bounds
 0 <= vnp1 <= 1
 0 <= (π,ρ)0↑e1 <= 1
 0 <= (π,ρ)1↑e2 <= 1
 0 <= (π,ρ)2↑e3 <= 1
 0 <= (π,ρ)3↑e3 <= 1
 0 <= (π,ρ)4↑e3 <= 1
 0 <= (π,ρ)5↑e3 <= 1
 0 <= (π,ρ)6↑e3 <= 1
 0 <= (π,ρ)7↑e3 <= 1
 0 <= (π,ρ)8↑e3 <= 1
 0 <= (π,ρ)9↑e3 <= 1
 0 <= (π,ρ)10↑e3 <= 1
 0 <= (π,ρ)11↑e3 <= 1
 0 <= (π,ρ)12↑e3 <= 1
 0 <= (π,ρ)13↑e3 <= 1
 0 <= (π,ρ)14↑e3 <= 1
 0 <= (π,ρ)15↑e3 <= 1
 0 <= (π,ρ)16↑e3 <= 1
 0 <= (π,ρ)17↑e3 <= 1
 0 <= vnp2 <= 1
 0 <= (π,ρ)18↑e4 <= 1
 0 <= (π,ρ)19↑e4 <= 1
 0 <= (π,ρ)20↑e4 <= 1
 0 <= (π,ρ)21↑e4 <= 1
 0 <= (π,ρ)22↑e4 <= 1
 0 <= (π,ρ)23↑e4 <= 1
 0 <= (π,ρ)24↑e4 <= 1
 0 <= (π,ρ)25↑e4 <= 1
 0 <= (π,ρ)26↑e4 <= 1
 0 <= (π,ρ)27↑e4 <= 1
 0 <= (π,ρ)28↑e4 <= 1
 0 <= (π,ρ)29↑e4 <= 1
 0 <= (π,ρ)30↑e4 <= 1
 0 <= (π,ρ)31↑e4 <= 1
 0 <= (π,ρ)32↑e4 <= 1
 0 <= (π,ρ)33↑e4 <= 1
 0 <= (π,ρ)34↑e5 <= 1
 0 <= (π,ρ)35↑e5 <= 1
 0 <= (π,ρ)36↑e5 <= 1
 0 <= (π,ρ)37↑e5 <= 1
 0 <= (π,ρ)38↑e5 <= 1
 0 <= (π,ρ)39↑e5 <= 1
 0 <= (π,ρ)40↑e5 <= 1
 0 <= (π,ρ)41↑e5 <= 1
 0 <= (π,ρ)42↑e5 <= 1
 0 <= (π,ρ)43↑e5 <= 1
 0 <= (π,ρ)44↑e5 <= 1
 0 <= (π,ρ)45↑e5 <= 1
 0 <= (π,ρ)46↑e5 <= 1
 0 <= (π,ρ)47↑e5 <= 1
 0 <= (π,ρ)48↑e5 <= 1
 0 <= (π,ρ)49↑e5 <= 1
 0 <= (π,ρ)50↑e6 <= 1
 0 <= (π,ρ)51↑e7 <= 1
 0 <= (π,ρ)52↑e7 <= 1
 0 <= (π,ρ)53↑e7 <= 1
 0 <= (π,ρ)54↑e7 <= 1
 0 <= (π,ρ)55↑e7 <= 1
 0 <= (π,ρ)56↑e7 <= 1
 0 <= (π,ρ)57↑e7 <= 1
 0 <= (π,ρ)58↑e7 <= 1
 0 <= (π,ρ)59↑e7 <= 1
 0 <= (π,ρ)60↑e7 <= 1
 0 <= (π,ρ)61↑e7 <= 1
 0 <= (π,ρ)62↑e7 <= 1
 0 <= (π,ρ)63↑e7 <= 1
 0 <= (π,ρ)64↑e7 <= 1
 0 <= (π,ρ)65↑e7 <= 1
 0 <= (π,ρ)66↑e7 <= 1
 0 <= vnp3 <= 1
 0 <= (π,ρ)67↑e8 <= 1
 0 <= (π,ρ)68↑e9 <= 1
 0 <= (π,ρ)69↑e9 <= 1
 0 <= (π,ρ)70↑e9 <= 1
 0 <= (π,ρ)71↑e9 <= 1
 0 <= (π,ρ)72↑e9 <= 1
 0 <= (π,ρ)73↑e9 <= 1
 0 <= (π,ρ)74↑e9 <= 1
 0 <= (π,ρ)75↑e9 <= 1
 0 <= (π,ρ)76↑e9 <= 1
 0 <= (π,ρ)77↑e9 <= 1
 0 <= (π,ρ)78↑e9 <= 1
 0 <= (π,ρ)79↑e9 <= 1
 0 <= (π,ρ)80↑e9 <= 1
 0 <= (π,ρ)81↑e9 <= 1
 0 <= (π,ρ)82↑e9 <= 1
 0 <= (π,ρ)83↑e9 <= 1
 0 <= (π,ρ)84↑e10 <= 1
 0 <= (π,ρ)85↑e10 <= 1
 0 <= (π,ρ)86↑e10 <= 1
 0 <= (π,ρ)87↑e10 <= 1
 0 <= (π,ρ)88↑e10 <= 1
 0 <= (π,ρ)89↑e10 <= 1
 0 <= (π,ρ)90↑e10 <= 1
 0 <= (π,ρ)91↑e10 <= 1
 0 <= (π,ρ)92↑e10 <= 1
 0 <= (π,ρ)93↑e10 <= 1
 0 <= (π,ρ)94↑e10 <= 1
 0 <= (π,ρ)95↑e10 <= 1
 0 <= (π,ρ)96↑e10 <= 1
 0 <= (π,ρ)97↑e10 <= 1
 0 <= (π,ρ)98↑e10 <= 1
 0 <= (π,ρ)99↑e10 <= 1
Binaries
 vnp1  (π,ρ)0↑e1  (π,ρ)1↑e2  (π,ρ)2↑e3 
 (π,ρ)3↑e3  (π,ρ)4↑e3  (π,ρ)5↑e3 
 (π,ρ)6↑e3  (π,ρ)7↑e3  (π,ρ)8↑e3 
 (π,ρ)9↑e3  (π,ρ)10↑e3  (π,ρ)11↑e3 
 (π,ρ)12↑e3  (π,ρ)13↑e3  (π,ρ)14↑e3 
 (π,ρ)15↑e3  (π,ρ)16↑e3  (π,ρ)17↑e3  vnp2 
 (π,ρ)18↑e4  (π,ρ)19↑e4  (π,ρ)20↑e4 
 (π,ρ)21↑e4  (π,ρ)22↑e4  (π,ρ)23↑e4 
 (π,ρ)24↑e4  (π,ρ)25↑e4  (π,ρ)26↑e4 
 (π,ρ)27↑e4  (π,ρ)28↑e4  (π,ρ)29↑e4 
 (π,ρ)30↑e4  (π,ρ)31↑e4  (π,ρ)32↑e4 
 (π,ρ)33↑e4  (π,ρ)34↑e5  (π,ρ)35↑e5 
 (π,ρ)36↑e5  (π,ρ)37↑e5  (π,ρ)38↑e5 
 (π,ρ)39↑e5  (π,ρ)40↑e5  (π,ρ)41↑e5 
 (π,ρ)42↑e5  (π,ρ)43↑e5  (π,ρ)44↑e5 
 (π,ρ)45↑e5  (π,ρ)46↑e5  (π,ρ)47↑e5 
 (π,ρ)48↑e5  (π,ρ)49↑e5  (π,ρ)50↑e6 
 (π,ρ)51↑e7  (π,ρ)52↑e7  (π,ρ)53↑e7 
 (π,ρ)54↑e7  (π,ρ)55↑e7  (π,ρ)56↑e7 
 (π,ρ)57↑e7  (π,ρ)58↑e7  (π,ρ)59↑e7 
 (π,ρ)60↑e7  (π,ρ)61↑e7  (π,ρ)62↑e7 
 (π,ρ)63↑e7  (π,ρ)64↑e7  (π,ρ)65↑e7 
 (π,ρ)66↑e7  vnp3  (π,ρ)67↑e8  (π,ρ)68↑e9 
 (π,ρ)69↑e9  (π,ρ)70↑e9  (π,ρ)71↑e9 
 (π,ρ)72↑e9  (π,ρ)73↑e9  (π,ρ)74↑e9 
 (π,ρ)75↑e9  (π,ρ)76↑e9  (π,ρ)77↑e9 
 (π,ρ)78↑e9  (π,ρ)79↑e9  (π,ρ)80↑e9 
 (π,ρ)81↑e9  (π,ρ)82↑e9  (π,ρ)83↑e9 
 (π,ρ)84↑e10  (π,ρ)85↑e10  (π,ρ)86↑e10 
 (π,ρ)87↑e10  (π,ρ)88↑e10  (π,ρ)89↑e10 
 (π,ρ)90↑e10  (π,ρ)91↑e10  (π,ρ)92↑e10 
 (π,ρ)93↑e10  (π,ρ)94↑e10  (π,ρ)95↑e10 
 (π,ρ)96↑e10  (π,ρ)97↑e10  (π,ρ)98↑e10 
 (π,ρ)99↑e10 
End
